6 6 102
4 1 1 5 1 5 2 5 3 2 22 22 42 42 70 70 100 
4 4 1 3 1 2 2 4 3 8 28 28 44 44 76 84 102 
3 6 1 1 2 3 2 4 26 26 60 60 100 
4 2 1 6 2 4 2 6 3 10 26 27 53 53 79 79 101 
10 1 1 4 1 4 1 3 1 3 1 5 1 5 1 6 2 6 2 4 3 0 2 2 5 5 8 8 12 12 15 15 19 19 21 24 26 26 27 79 84 
10 6 1 2 1 2 1 1 2 1 2 2 2 2 2 4 2 3 2 3 2 0 4 4 7 7 10 18 22 22 24 25 26 26 31 31 33 39 44 44 45 
